language Essence 1.3

letting blksize_delta be
        function(1 --> 1, 2 --> 1, 3 --> 1, 4 --> 2, 5 --> 1, 6 --> 2, 7 --> 2, 8 --> 2, 9 --> 2, 10 --> 1, 11 --> 2,
                 12 --> 1, 13 --> 2, 14 --> 2, 15 --> 2, 16 --> 1, 17 --> 2, 18 --> 2, 19 --> 1, 20 --> 2, 21 --> 1,
                 22 --> 1, 23 --> 2, 24 --> 1, 25 --> 1, 26 --> 2, 27 --> 1, 28 --> 1, 29 --> 1, 30 --> 2, 31 --> 1,
                 32 --> 2, 33 --> 1, 34 --> 1, 35 --> 2, 36 --> 2, 37 --> 1, 38 --> 1, 39 --> 1, 40 --> 1, 41 --> 1,
                 42 --> 2, 43 --> 1, 44 --> 2, 45 --> 1, 46 --> 1, 47 --> 2, 48 --> 1, 49 --> 2, 50 --> 1, 51 --> 2,
                 52 --> 2, 53 --> 2, 54 --> 2, 55 --> 2, 56 --> 2, 57 --> 2, 58 --> 2, 59 --> 2, 60 --> 2, 61 --> 1,
                 62 --> 2, 63 --> 2, 64 --> 2, 65 --> 1, 66 --> 1, 67 --> 1, 68 --> 1, 69 --> 2, 70 --> 2)
letting maxcars be
        function(1 --> 7, 2 --> 8, 3 --> 6, 4 --> 5, 5 --> 5, 6 --> 3, 7 --> 5, 8 --> 8, 9 --> 8, 10 --> 8, 11 --> 6,
                 12 --> 6, 13 --> 4, 14 --> 3, 15 --> 6, 16 --> 7, 17 --> 4, 18 --> 5, 19 --> 8, 20 --> 8, 21 --> 8,
                 22 --> 6, 23 --> 3, 24 --> 4, 25 --> 5, 26 --> 8, 27 --> 7, 28 --> 5, 29 --> 4, 30 --> 8, 31 --> 7,
                 32 --> 6, 33 --> 3, 34 --> 7, 35 --> 8, 36 --> 6, 37 --> 7, 38 --> 7, 39 --> 3, 40 --> 6, 41 --> 8,
                 42 --> 4, 43 --> 3, 44 --> 7, 45 --> 6, 46 --> 8, 47 --> 4, 48 --> 3, 49 --> 5, 50 --> 6, 51 --> 3,
                 52 --> 7, 53 --> 6, 54 --> 8, 55 --> 6, 56 --> 3, 57 --> 7, 58 --> 5, 59 --> 6, 60 --> 5, 61 --> 8,
                 62 --> 4, 63 --> 8, 64 --> 7, 65 --> 6, 66 --> 7, 67 --> 8, 68 --> 5, 69 --> 4, 70 --> 8)
letting n_cars be 70
letting n_classes be 3
letting n_options be 70
letting quantity be function(1 --> 24, 2 --> 23, 3 --> 23)
letting usage be
        relation((1, 1), (1, 2), (1, 3), (1, 4), (1, 5), (1, 11), (1, 12), (1, 13), (1, 16), (1, 18), (1, 21), (1, 24),
                 (1, 27), (1, 31), (1, 33), (1, 37), (1, 40), (1, 42), (1, 50), (1, 52), (1, 56), (1, 57), (1, 59),
                 (1, 60), (1, 62), (1, 63), (1, 65), (2, 1), (2, 5), (2, 6), (2, 7), (2, 9), (2, 11), (2, 13), (2, 14),
                 (2, 16), (2, 19), (2, 22), (2, 23), (2, 25), (2, 26), (2, 27), (2, 28), (2, 29), (2, 30), (2, 31),
                 (2, 32), (2, 33), (2, 34), (2, 35), (2, 37), (2, 40), (2, 41), (2, 46), (2, 52), (2, 53), (2, 55),
                 (2, 56), (2, 62), (2, 63), (2, 64), (2, 65), (2, 66), (2, 67), (2, 69), (2, 70), (3, 2), (3, 3),
                 (3, 4), (3, 5), (3, 6), (3, 7), (3, 8), (3, 9), (3, 10), (3, 14), (3, 15), (3, 16), (3, 17), (3, 18),
                 (3, 20), (3, 22), (3, 24), (3, 25), (3, 26), (3, 28), (3, 30), (3, 31), (3, 32), (3, 33), (3, 36),
                 (3, 37), (3, 38), (3, 39), (3, 40), (3, 43), (3, 44), (3, 45), (3, 46), (3, 47), (3, 48), (3, 49),
                 (3, 51), (3, 52), (3, 54), (3, 57), (3, 58), (3, 61), (3, 62), (3, 64), (3, 66), (3, 67), (3, 68),
                 (3, 69))
$ Visualisation for usage
$  1  1
$  1  2
$  1  3
$  1  4
$  1  5
$  1 11
$  1 12
$  1 13
$  1 16
$  1 18
$  1 21
$  1 24
$  1 27
$  1 31
$  1 33
$  1 37
$  1 40
$  1 42
$  1 50
$  1 52
$  1 56
$  1 57
$  1 59
$  1 60
$  1 62
$  1 63
$  1 65
$  2  1
$  2  5
$  2  6
$  2  7
$  2  9
$  2 11
$  2 13
$  2 14
$  2 16
$  2 19
$  2 22
$  2 23
$  2 25
$  2 26
$  2 27
$  2 28
$  2 29
$  2 30
$  2 31
$  2 32
$  2 33
$  2 34
$  2 35
$  2 37
$  2 40
$  2 41
$  2 46
$  2 52
$  2 53
$  2 55
$  2 56
$  2 62
$  2 63
$  2 64
$  2 65
$  2 66
$  2 67
$  2 69
$  2 70
$  3  2
$  3  3
$  3  4
$  3  5
$  3  6
$  3  7
$  3  8
$  3  9
$  3 10
$  3 14
$  3 15
$  3 16
$  3 17
$  3 18
$  3 20
$  3 22
$  3 24
$  3 25
$  3 26
$  3 28
$  3 30
$  3 31
$  3 32
$  3 33
$  3 36
$  3 37
$  3 38
$  3 39
$  3 40
$  3 43
$  3 44
$  3 45
$  3 46
$  3 47
$  3 48
$  3 49
$  3 51
$  3 52
$  3 54
$  3 57
$  3 58
$  3 61
$  3 62
$  3 64
$  3 66
$  3 67
$  3 68
$  3 69

